c "774684.clq"
p edge 141 548
e 1 5
e 1 6
e 1 7
e 1 8
e 1 11
e 1 12
e 1 14
e 1 16
e 1 17
e 1 19
e 1 20
e 1 21
e 1 23
e 1 26
e 1 30
e 1 35
e 1 39
e 1 41
e 1 47
e 1 49
e 1 57
e 1 108
e 2 5
e 2 6
e 2 11
e 2 13
e 2 48
e 2 53
e 2 94
e 2 137
e 3 5
e 3 7
e 4 5
e 4 6
e 4 9
e 4 10
e 4 12
e 4 18
e 4 34
e 4 53
e 4 82
e 4 84
e 4 103
e 4 135
e 5 6
e 5 7
e 5 8
e 5 9
e 5 10
e 5 11
e 5 12
e 5 13
e 5 14
e 5 18
e 5 21
e 5 22
e 5 25
e 5 26
e 5 28
e 5 32
e 5 34
e 5 41
e 5 48
e 5 50
e 5 51
e 5 52
e 5 53
e 5 56
e 5 57
e 5 67
e 5 69
e 5 73
e 5 74
e 5 78
e 5 82
e 5 85
e 5 87
e 5 89
e 5 93
e 5 100
e 5 104
e 5 105
e 5 107
e 5 113
e 5 118
e 5 127
e 5 129
e 5 134
e 6 7
e 6 8
e 6 9
e 6 10
e 6 13
e 6 14
e 6 19
e 6 21
e 6 23
e 6 27
e 6 29
e 6 35
e 6 43
e 6 48
e 6 62
e 6 63
e 6 69
e 6 81
e 6 84
e 6 88
e 6 98
e 6 109
e 6 111
e 6 112
e 6 125
e 6 141
e 7 8
e 7 9
e 7 15
e 7 16
e 7 18
e 7 20
e 7 22
e 7 25
e 7 28
e 7 31
e 7 33
e 7 44
e 7 45
e 7 48
e 7 55
e 7 56
e 7 60
e 7 65
e 7 66
e 7 80
e 7 86
e 7 93
e 7 100
e 7 115
e 7 122
e 7 130
e 8 10
e 8 12
e 8 17
e 8 19
e 8 20
e 8 24
e 8 29
e 8 34
e 8 36
e 8 47
e 8 51
e 8 74
e 8 83
e 8 106
e 9 11
e 9 13
e 9 14
e 9 15
e 9 17
e 9 21
e 9 24
e 9 25
e 9 29
e 9 30
e 9 31
e 9 38
e 9 57
e 9 77
e 9 79
e 9 110
e 9 112
e 9 132
e 9 136
e 9 140
e 10 18
e 10 24
e 10 33
e 10 35
e 10 43
e 10 45
e 10 68
e 10 77
e 10 84
e 10 85
e 10 88
e 10 106
e 10 140
e 11 15
e 11 30
e 11 36
e 11 38
e 11 42
e 11 44
e 11 46
e 11 56
e 11 61
e 11 63
e 11 71
e 11 99
e 11 102
e 11 108
e 12 15
e 12 39
e 12 42
e 12 49
e 12 76
e 12 79
e 12 80
e 12 117
e 12 139
e 13 16
e 13 19
e 13 25
e 13 26
e 13 27
e 13 35
e 13 37
e 13 54
e 13 59
e 13 101
e 13 138
e 14 45
e 14 65
e 14 97
e 14 131
e 14 136
e 15 16
e 15 22
e 15 24
e 15 32
e 15 33
e 15 36
e 15 37
e 15 41
e 15 42
e 15 44
e 15 50
e 15 62
e 15 64
e 15 70
e 15 73
e 15 84
e 15 94
e 15 100
e 15 111
e 15 117
e 15 124
e 15 129
e 15 141
e 16 17
e 16 29
e 16 47
e 16 78
e 16 90
e 16 120
e 16 122
e 16 126
e 16 136
e 17 62
e 17 69
e 18 20
e 18 23
e 18 45
e 18 63
e 18 68
e 18 70
e 18 76
e 18 81
e 18 82
e 18 86
e 18 91
e 18 102
e 18 119
e 19 23
e 19 27
e 19 28
e 19 47
e 19 83
e 19 116
e 20 22
e 20 40
e 20 90
e 20 103
e 20 114
e 20 120
e 21 64
e 21 91
e 21 117
e 22 26
e 22 27
e 22 31
e 22 33
e 22 37
e 22 39
e 22 52
e 22 55
e 22 57
e 22 76
e 22 81
e 22 87
e 22 107
e 22 110
e 22 127
e 22 133
e 23 28
e 23 46
e 23 51
e 23 55
e 23 64
e 23 103
e 23 121
e 24 32
e 24 50
e 24 54
e 24 59
e 24 72
e 24 92
e 24 94
e 24 116
e 24 123
e 24 128
e 25 51
e 25 66
e 25 83
e 25 114
e 26 31
e 26 37
e 26 40
e 26 59
e 26 64
e 26 65
e 26 80
e 26 119
e 26 122
e 26 130
e 26 135
e 27 38
e 27 40
e 27 58
e 27 93
e 27 96
e 27 119
e 28 32
e 28 39
e 28 41
e 28 42
e 28 46
e 28 52
e 28 92
e 28 101
e 28 107
e 29 30
e 30 56
e 30 61
e 30 68
e 30 76
e 30 97
e 30 99
e 30 101
e 31 79
e 31 118
e 32 34
e 32 38
e 32 68
e 32 72
e 32 83
e 32 111
e 32 113
e 33 66
e 33 98
e 33 100
e 33 110
e 34 43
e 34 63
e 34 70
e 34 98
e 34 125
e 34 134
e 35 36
e 35 65
e 35 77
e 35 95
e 35 114
e 35 116
e 35 130
e 36 40
e 36 74
e 36 78
e 36 89
e 36 138
e 36 140
e 37 72
e 37 88
e 37 102
e 37 104
e 38 44
e 38 50
e 38 52
e 38 58
e 38 60
e 38 106
e 38 129
e 39 90
e 39 135
e 40 93
e 40 96
e 41 43
e 41 59
e 41 61
e 42 96
e 42 101
e 42 139
e 43 75
e 43 82
e 43 91
e 43 114
e 43 127
e 44 77
e 44 141
e 45 46
e 45 49
e 45 67
e 45 98
e 46 71
e 46 74
e 46 92
e 46 112
e 48 49
e 48 55
e 48 103
e 49 53
e 49 80
e 49 87
e 49 89
e 49 113
e 49 132
e 50 54
e 50 58
e 50 75
e 50 81
e 50 127
e 52 54
e 52 60
e 52 94
e 52 105
e 52 109
e 52 110
e 53 61
e 53 72
e 53 95
e 53 141
e 55 69
e 55 71
e 55 90
e 57 58
e 57 85
e 57 95
e 57 104
e 57 115
e 57 123
e 57 128
e 59 60
e 59 88
e 59 124
e 60 62
e 60 67
e 60 70
e 60 71
e 60 78
e 60 115
e 60 137
e 61 99
e 61 109
e 62 131
e 64 66
e 64 115
e 64 131
e 65 67
e 65 87
e 65 97
e 65 121
e 65 138
e 67 75
e 67 136
e 68 73
e 69 124
e 69 137
e 70 73
e 70 75
e 70 134
e 71 85
e 71 118
e 72 106
e 73 86
e 73 117
e 74 107
e 74 108
e 74 116
e 74 133
e 75 79
e 75 91
e 75 108
e 75 112
e 75 131
e 76 109
e 78 89
e 79 104
e 79 120
e 80 95
e 80 140
e 81 124
e 82 86
e 82 96
e 82 99
e 82 105
e 83 113
e 84 120
e 84 126
e 85 126
e 86 119
e 87 92
e 87 118
e 88 97
e 90 125
e 93 139
e 94 132
e 95 134
e 98 126
e 99 102
e 99 121
e 100 133
e 101 123
e 102 138
e 103 123
e 104 105
e 109 129
e 109 135
e 110 111
e 111 128
e 114 122
e 116 121
e 117 125
e 119 130
e 122 128
e 126 133
e 129 137
e 131 132
e 133 139
